<?xml version = "1.0" encoding="UTF-8" standalone="yes"?>
<CPLEXSolution version="1.2">
 <header
   problemName="ilog.cplex"
   solutionName="incumbent"
   solutionIndex="-1"
   objectiveValue="289"
   solutionTypeValue="3"
   solutionTypeString="primal"
   solutionStatusValue="101"
   solutionStatusString="integer optimal solution"
   solutionMethodString="mip"
   primalFeasible="1"
   dualFeasible="1"
   MIPNodes="35568"
   MIPIterations="571503"
   writeLevel="3"/>
 <quality
   epInt="1.0000000000000001e-05"
   epRHS="9.9999999999999995e-07"
   maxIntInfeas="0"
   maxPrimalInfeas="0"
   maxX="11"
   maxSlack="100"/>
 <variables>
  <variable name="x_0_3_0" index="3" value="1"/>
  <variable name="x_9_0_0" index="20" value="1"/>
  <variable name="x_0_3_2" index="49" value="1"/>
  <variable name="x_2_0_2" index="59" value="1"/>
  <variable name="x_0_1_3" index="70" value="1"/>
  <variable name="x_7_0_3" index="87" value="1"/>
  <variable name="x_1_7_3" index="161" value="1"/>
  <variable name="x_11_2_2" index="232" value="1"/>
  <variable name="x_3_5_0" index="254" value="1"/>
  <variable name="x_3_4_2" index="287" value="1"/>
  <variable name="x_4_11_2" index="357" value="1"/>
  <variable name="x_5_10_0" index="385" value="1"/>
  <variable name="x_6_8_0" index="434" value="1"/>
  <variable name="x_10_6_0" index="441" value="1"/>
  <variable name="x_8_9_0" index="513" value="1"/>
  <variable name="y_0_3" index="576" value="1"/>
  <variable name="y_1_2" index="581" value="1"/>
  <variable name="y_2_2" index="585" value="1"/>
  <variable name="y_3_2" index="589" value="1"/>
  <variable name="y_4_0" index="595" value="1"/>
  <variable name="y_5_0" index="599" value="1"/>
  <variable name="y_6_3" index="600" value="1"/>
  <variable name="y_7_0" index="607" value="1"/>
  <variable name="y_8_0" index="611" value="1"/>
  <variable name="y_9_0" index="615" value="1"/>
  <variable name="y_10_2" index="617" value="1"/>
  <variable name="u_1_0" index="620" value="1"/>
  <variable name="u_2_0" index="621" value="1"/>
  <variable name="u_1_1" index="622" value="1"/>
  <variable name="u_2_1" index="623" value="11"/>
  <variable name="u_1_2" index="624" value="1"/>
  <variable name="u_2_2" index="625" value="11"/>
  <variable name="u_1_3" index="626" value="1"/>
  <variable name="u_2_3" index="627" value="1"/>
  <variable name="u_3_0" index="628" value="1"/>
  <variable name="u_3_1" index="629" value="1"/>
  <variable name="u_3_2" index="630" value="1"/>
  <variable name="u_3_3" index="631" value="1"/>
  <variable name="u_4_0" index="632" value="11"/>
  <variable name="u_4_1" index="633" value="11"/>
  <variable name="u_4_2" index="634" value="2"/>
  <variable name="u_4_3" index="635" value="1"/>
  <variable name="u_5_0" index="636" value="2"/>
  <variable name="u_5_1" index="637" value="1"/>
  <variable name="u_5_2" index="638" value="1"/>
  <variable name="u_5_3" index="639" value="1"/>
  <variable name="u_6_0" index="640" value="4"/>
  <variable name="u_6_1" index="641" value="1"/>
  <variable name="u_6_2" index="642" value="1"/>
  <variable name="u_6_3" index="643" value="1"/>
  <variable name="u_7_0" index="644" value="2"/>
  <variable name="u_7_1" index="645" value="1"/>
  <variable name="u_7_2" index="646" value="1"/>
  <variable name="u_7_3" index="647" value="2"/>
  <variable name="u_8_0" index="648" value="5"/>
  <variable name="u_8_1" index="649" value="1"/>
  <variable name="u_8_2" index="650" value="1"/>
  <variable name="u_8_3" index="651" value="1"/>
  <variable name="u_9_0" index="652" value="11"/>
  <variable name="u_9_1" index="653" value="1"/>
  <variable name="u_9_2" index="654" value="11"/>
  <variable name="u_9_3" index="655" value="1"/>
  <variable name="u_10_0" index="656" value="3"/>
  <variable name="u_10_1" index="657" value="1"/>
  <variable name="u_10_2" index="658" value="1"/>
  <variable name="u_10_3" index="659" value="1"/>
  <variable name="u_11_0" index="660" value="1"/>
  <variable name="u_11_1" index="661" value="11"/>
  <variable name="u_11_2" index="662" value="3"/>
  <variable name="u_11_3" index="663" value="1"/>
 </variables>
 <objectiveValues>
  <objective index="0" name="" value="289"/>
 </objectiveValues>
</CPLEXSolution>
